24
3 28 54 24 
3 21 34 59 
2 7 51 
3 37 53 2 
2 55 1 
3 46 11 14 
3 30 12 26 
3 41 49 38 
1 52 
3 56 47 33 
3 29 19 15 
2 25 43 
3 50 27 13 
3 6 39 8 
2 58 16 
2 4 60 
2 31 48 
3 10 17 44 
3 5 45 3 
3 23 42 22 
1 36 
2 20 57 
3 32 35 18 
2 9 40 
